(set-logic QF_BV)
(declare-fun _substvar_259_ () (_ BitVec 79))
(declare-fun _substvar_204_ () (_ BitVec 79))
(declare-fun _substvar_232_ () (_ BitVec 79))
(declare-fun _substvar_216_ () (_ BitVec 79))
(declare-fun _substvar_315_ () Bool)
(assert (and true true true true true true true true true true true true true true true true true true true true true true true true true true true true true true true true true true true true true true true true true true true true true true true true true true true true true true true true true true true true true true true true true true true true true true true true true true true true true true true true true true true true true true true true true true true true true true true true true true true true true true true true true true true true true true true true true true true true true true true true true true true true true true true true true true true true true true true true true true true true true true true true true true true true true true true true true true true true true true true true true true true true true true true true true true true true true true true true true true true true true true true true true true true true true true true true true true true true true true true true true true true true true true true true true true true true true true true true true true true true true true true true true true true true true true true true true true true true true true true true true true true true true true true true true true true true (= _substvar_232_ (_ bv0 79)) (ite _substvar_315_ (= _substvar_204_ (_ bv0 79)) (= _substvar_204_ (concat (_ bv0 78) (bvxor (_ bv0 1) ((_ extract 69 69) _substvar_232_))))) (= _substvar_216_ (concat ((_ extract 77 0) _substvar_204_) (bvxor ((_ extract 78 78) _substvar_204_) ((_ extract 69 69) _substvar_204_)))) (= _substvar_259_ (concat ((_ extract 77 0) _substvar_216_) (_ bv0 1))) true true true true true true true true true true (= (or false false false false false (= (_ bv0 79) _substvar_259_)) false)))
(check-sat)
(exit)
